NAME PortOpt_n10_m4_inst_1
ROWS
 N  OBJ
 E  budget  
 G  return  
 L  uncertain_risk
 L  fixed_risk
COLUMNS
    asset[0]  budget    1
    asset[0]  return    4.6765263859011759e+00
    asset[1]  budget    1
    asset[1]  return    3.7201577124533869e+00
    asset[2]  budget    1
    asset[2]  return    4.1948836051640281e+00
    asset[3]  budget    1
    asset[3]  return    1.7134482466161300e+00
    asset[4]  budget    1
    asset[4]  return    3.6221191617300397e+00
    asset[5]  budget    1
    asset[5]  return    2.0332467862851016e+00
    asset[6]  budget    1
    asset[6]  return    4.1528546734451917e+00
    asset[7]  budget    1
    asset[7]  return    2.4575264422412060e+00
    asset[8]  budget    1
    asset[8]  return    4.1817041178976266e+00
    asset[9]  budget    1
    asset[9]  return    1.6860733013925471e+00
    return_var  OBJ       -1
    return_var  return    -1
    uncertain_risk_var  OBJ       1
    uncertain_risk_var  uncertain_risk  -1
    fixed_risk_var  OBJ       1
    fixed_risk_var  fixed_risk  -1
RHS
    RHS1      budget    1
BOUNDS
QCMATRIX   uncertain_risk
    asset[0]  asset[0]  3.0305600335999345e-02
    asset[0]  asset[1]  4.1478587761746899e-02
    asset[1]  asset[0]  4.1478587761746899e-02
    asset[0]  asset[2]  -5.3891075114718837e-04
    asset[2]  asset[0]  -5.3891075114718837e-04
    asset[0]  asset[3]  4.5429487223047488e-02
    asset[3]  asset[0]  4.5429487223047488e-02
    asset[0]  asset[4]  -3.6010039816282514e-02
    asset[4]  asset[0]  -3.6010039816282514e-02
    asset[0]  asset[5]  2.6044485975279363e-02
    asset[5]  asset[0]  2.6044485975279363e-02
    asset[0]  asset[6]  5.5502224316969190e-02
    asset[6]  asset[0]  5.5502224316969190e-02
    asset[0]  asset[7]  -3.1228974959878288e-02
    asset[7]  asset[0]  -3.1228974959878288e-02
    asset[0]  asset[8]  -3.0362720669203289e-02
    asset[8]  asset[0]  -3.0362720669203289e-02
    asset[0]  asset[9]  9.2535049024296268e-06
    asset[9]  asset[0]  9.2535049024296268e-06
    asset[1]  asset[1]  6.5302328804483945e-02
    asset[1]  asset[2]  2.5664214303768571e-03
    asset[2]  asset[1]  2.5664214303768571e-03
    asset[1]  asset[3]  7.7681856002699404e-02
    asset[3]  asset[1]  7.7681856002699404e-02
    asset[1]  asset[4]  -4.3325639254284266e-02
    asset[4]  asset[1]  -4.3325639254284266e-02
    asset[1]  asset[5]  1.2148014990532724e-03
    asset[5]  asset[1]  1.2148014990532724e-03
    asset[1]  asset[6]  7.3864819973339643e-02
    asset[6]  asset[1]  7.3864819973339643e-02
    asset[1]  asset[7]  -3.0715373837008959e-02
    asset[7]  asset[1]  -3.0715373837008959e-02
    asset[1]  asset[8]  -3.6501456403161367e-02
    asset[8]  asset[1]  -3.6501456403161367e-02
    asset[1]  asset[9]  1.0790332095865433e-02
    asset[9]  asset[1]  1.0790332095865433e-02
    asset[2]  asset[2]  1.3905057599437321e-03
    asset[2]  asset[3]  5.1340999792508987e-03
    asset[3]  asset[2]  5.1340999792508987e-03
    asset[2]  asset[4]  3.0185031996376290e-03
    asset[4]  asset[2]  3.0185031996376290e-03
    asset[2]  asset[5]  -1.4618854906246542e-02
    asset[5]  asset[2]  -1.4618854906246542e-02
    asset[2]  asset[6]  -2.4483053649656337e-03
    asset[6]  asset[2]  -2.4483053649656337e-03
    asset[2]  asset[7]  4.5110629872014106e-03
    asset[7]  asset[2]  4.5110629872014106e-03
    asset[2]  asset[8]  1.8361739343569264e-03
    asset[8]  asset[2]  1.8361739343569264e-03
    asset[2]  asset[9]  3.7165913914188760e-03
    asset[9]  asset[2]  3.7165913914188760e-03
    asset[3]  asset[3]  1.1827798679575946e-01
    asset[3]  asset[4]  -3.7440760951729990e-02
    asset[4]  asset[3]  -3.7440760951729990e-02
    asset[3]  asset[5]  -5.6591859241268125e-02
    asset[5]  asset[3]  -5.6591859241268125e-02
    asset[3]  asset[6]  5.9583697215754169e-02
    asset[6]  asset[3]  5.9583697215754169e-02
    asset[3]  asset[7]  -5.0217298391272806e-03
    asset[7]  asset[3]  -5.0217298391272806e-03
    asset[3]  asset[8]  -5.1982814702309574e-02
    asset[8]  asset[3]  -5.1982814702309574e-02
    asset[3]  asset[9]  4.3339664513194293e-02
    asset[9]  asset[3]  4.3339664513194293e-02
    asset[4]  asset[4]  4.8506434488698617e-02
    asset[4]  asset[5]  -6.4357005142351126e-02
    asset[5]  asset[4]  -6.4357005142351126e-02
    asset[4]  asset[6]  -7.3151367190976535e-02
    asset[6]  asset[4]  -7.3151367190976535e-02
    asset[4]  asset[7]  5.0133529474189725e-02
    asset[7]  asset[4]  5.0133529474189725e-02
    asset[4]  asset[8]  3.4949192875973555e-02
    asset[8]  asset[4]  3.4949192875973555e-02
    asset[4]  asset[9]  1.3346469068245733e-02
    asset[9]  asset[4]  1.3346469068245733e-02
    asset[5]  asset[5]  2.1929377829900037e-01
    asset[5]  asset[6]  9.2290148950311596e-02
    asset[6]  asset[5]  9.2290148950311596e-02
    asset[5]  asset[7]  -9.9498116811958942e-02
    asset[7]  asset[5]  -9.9498116811958942e-02
    asset[5]  asset[8]  -1.6594276441535837e-02
    asset[8]  asset[5]  -1.6594276441535837e-02
    asset[5]  asset[9]  -7.5636606443328286e-02
    asset[9]  asset[5]  -7.5636606443328286e-02
    asset[6]  asset[6]  1.2488119173432151e-01
    asset[6]  asset[7]  -7.3601504846968327e-02
    asset[7]  asset[6]  -7.3601504846968327e-02
    asset[6]  asset[8]  -3.7854218353825977e-02
    asset[8]  asset[6]  -3.7854218353825977e-02
    asset[6]  asset[9]  -2.1285336004079228e-02
    asset[9]  asset[6]  -2.1285336004079228e-02
    asset[7]  asset[7]  7.1318160856731844e-02
    asset[7]  asset[8]  2.8734086944280691e-02
    asset[8]  asset[7]  2.8734086944280691e-02
    asset[7]  asset[9]  3.9182734067185081e-02
    asset[9]  asset[7]  3.9182734067185081e-02
    asset[8]  asset[8]  4.9474012639416677e-02
    asset[8]  asset[9]  -7.7922577013272362e-03
    asset[9]  asset[8]  -7.7922577013272362e-03
    asset[9]  asset[9]  4.0733110173728763e-02
QCMATRIX   fixed_risk
    asset[0]  asset[0]  2.7004410940169483e-03
    asset[1]  asset[1]  6.3647766558110807e-03
    asset[2]  asset[2]  1.2556526756184880e-04
    asset[3]  asset[3]  1.2470762997402129e-02
    asset[4]  asset[4]  5.6369743376874842e-03
    asset[5]  asset[5]  2.4308852814043266e-02
    asset[6]  asset[6]  1.2617536245902112e-02
    asset[7]  asset[7]  6.5677524464840542e-03
    asset[8]  asset[8]  4.8578348904132693e-03
    asset[9]  asset[9]  4.0816430591843547e-03
ENDATA
